p cnf 15 62
c Stations: 1 2 3 4 5 
c Channels: 16 14 15 
-1 -3 0
-1 -2 0
-2 -3 0
1 2 3 0
-1 -5 0
-2 -6 0
-1 -8 0
-2 -9 0
-1 -11 0
-2 -12 0
-1 -14 0
-2 -15 0
-4 -6 0
-4 -5 0
-5 -6 0
5 0
-3 -6 0
-1 -4 0
-2 -5 0
-2 -4 0
-3 -5 0
-7 -9 0
-7 -8 0
-8 -9 0
7 8 9 0
-3 -9 0
-1 -7 0
-2 -8 0
-6 -9 0
-4 -7 0
-5 -8 0
-2 -7 0
-3 -8 0
-10 -12 0
-10 -11 0
-11 -12 0
10 11 12 0
-3 -12 0
-1 -10 0
-2 -11 0
-9 -12 0
-7 -10 0
-8 -11 0
-2 -10 0
-3 -11 0
-8 -10 0
-9 -11 0
-13 -15 0
-13 -14 0
-14 -15 0
13 14 15 0
-3 -15 0
-1 -13 0
-2 -14 0
-6 -15 0
-4 -13 0
-5 -14 0
-12 -15 0
-10 -13 0
-11 -14 0
-2 -13 0
-3 -14 0
